(set-logic QF_S)
(declare-fun var_0xINPUT_300482 () String)
(assert (and (= (len var_0xINPUT_300482) 0) (= (len var_0xINPUT_300482) 0) (not (= var_0xINPUT_300482 "6JX7G3VKFq"))))
(check-sat var_0xINPUT_300482)